70
1 0 9
2 1 5
3 0 3
3 2 6
4 0 4
4 1 7
4 3 9
5 0 2
5 1 9
5 3 6
6 0 2
6 2 1
7 2 9
7 6 5
8 1 1
8 6 3
9 0 6
9 1 9
9 2 6
9 4 11
9 7 4
10 0 8
10 1 2
10 2 1
10 5 7
11 0 10
11 2 3
11 3 3
11 4 8
11 9 5
11 10 8
12 0 2
12 1 4
12 4 5
12 5 1
12 10 2
12 11 9
13 1 7
13 2 6
13 4 9
13 5 10
13 7 8
13 8 10
13 10 6
13 11 6
13 12 2
14 0 6
14 1 3
14 4 2
14 6 8
14 11 10
14 13 9
15 0 10
15 1 9
15 4 6
15 6 10
15 7 3
15 9 3
15 12 11
15 13 5
16 0 7
16 5 10
16 6 10
16 8 5
16 12 5
17 1 5
17 4 9
17 6 10
17 7 11
17 9 2
17 10 5
17 16 3
18 3 3
18 9 6
18 10 3
18 14 10
18 15 9
19 3 3
19 6 4
19 7 3
19 8 4
19 12 1
19 14 6
19 15 11
19 16 11
20 0 8
20 2 2
20 4 4
20 5 3
20 6 10
20 7 2
20 11 4
20 12 4
20 16 11
20 18 2
21 0 9
21 3 4
21 4 3
21 6 6
21 7 4
21 10 7
21 13 11
21 16 1
21 17 4
21 18 6
22 0 10
22 1 10
22 5 10
22 6 1
22 7 4
22 9 11
22 13 4
22 14 1
22 15 10
22 18 10
22 20 5
22 21 9
23 0 5
23 1 6
23 5 11
23 8 4
23 10 5
23 13 4
23 15 9
23 16 9
23 17 8
23 19 4
23 21 8
23 22 6
24 0 3
24 2 10
24 3 8
24 4 8
24 5 3
24 7 2
24 8 8
24 9 4
24 13 5
24 14 4
24 16 11
24 17 11
24 20 8
24 21 9
25 0 2
25 2 8
25 3 6
25 4 6
25 6 6
25 7 3
25 8 4
25 11 4
25 13 6
25 14 10
25 17 10
25 18 5
25 19 7
25 20 4
25 21 5
25 24 8
26 0 2
26 9 7
26 12 4
26 13 7
26 15 6
26 16 9
26 23 11
26 24 6
27 1 6
27 8 3
27 10 3
27 11 1
27 12 5
27 18 4
27 22 1
27 24 9
28 1 10
28 3 5
28 4 9
28 5 11
28 8 10
28 9 8
28 12 4
28 14 8
28 15 8
28 16 9
28 21 2
28 22 9
28 23 1
28 25 1
28 26 1
28 27 5
29 0 5
29 2 1
29 6 4
29 7 11
29 9 11
29 11 5
29 15 3
29 19 4
29 21 5
29 22 2
29 23 3
29 24 2
29 25 4
29 26 6
30 0 7
30 3 1
30 4 1
30 9 10
30 10 5
30 12 6
30 15 10
30 17 2
30 18 1
30 20 11
30 22 4
30 23 1
30 26 6
30 28 5
30 29 2
31 0 7
31 4 2
31 5 10
31 8 9
31 9 7
31 11 5
31 12 6
31 15 1
31 18 5
31 19 5
31 20 8
31 21 4
31 22 8
31 24 8
31 25 4
31 26 3
31 28 6
32 1 7
32 3 4
32 4 1
32 5 2
32 9 9
32 13 9
32 15 5
32 21 4
32 22 3
32 23 5
32 26 11
32 30 5
32 31 10
33 1 1
33 5 6
33 6 2
33 8 10
33 9 8
33 12 6
33 13 8
33 16 11
33 19 9
33 21 7
33 22 1
33 24 6
33 25 8
33 28 2
33 32 9
34 2 2
34 3 8
34 9 4
34 10 10
34 14 5
34 15 1
34 17 7
34 19 3
34 20 6
34 24 2
34 25 6
34 29 10
34 31 4
34 33 8
35 2 3
35 3 4
35 5 1
35 7 8
35 14 9
35 15 2
35 17 11
35 18 6
35 20 9
35 23 9
35 25 3
35 28 6
35 29 10
36 1 10
36 3 9
36 4 3
36 5 9
36 6 1
36 7 5
36 8 3
36 10 10
36 11 1
36 21 10
36 22 2
36 23 6
36 24 9
36 25 2
36 28 1
36 29 2
36 31 8
36 32 2
36 33 9
36 34 8
37 1 10
37 5 8
37 7 1
37 8 11
37 9 6
37 12 8
37 13 9
37 16 1
37 19 7
37 21 3
37 26 9
37 28 7
37 29 6
37 31 8
37 32 10
37 33 11
37 34 4
37 35 8
38 1 1
38 3 9
38 7 6
38 8 8
38 11 9
38 13 9
38 16 8
38 17 3
38 18 5
38 19 4
38 20 6
38 21 2
38 23 4
38 24 9
38 28 7
38 31 3
38 34 10
38 36 6
39 2 7
39 6 5
39 7 7
39 8 5
39 10 5
39 13 5
39 14 3
39 15 1
39 16 7
39 20 6
39 21 4
39 24 7
39 27 8
39 30 9
39 31 4
39 34 6
39 35 8
40 1 11
40 4 6
40 7 6
40 8 11
40 10 9
40 11 9
40 12 9
40 15 10
40 17 5
40 18 2
40 20 4
40 22 6
40 25 3
40 27 8
40 29 7
40 30 10
40 33 4
40 35 7
40 38 3
40 39 2
41 2 9
41 5 7
41 9 7
41 11 2
41 13 1
41 14 4
41 15 11
41 16 2
41 17 10
41 19 4
41 24 9
41 28 10
41 29 6
41 30 6
41 33 7
41 34 4
41 35 2
41 38 7
42 3 9
42 5 7
42 7 4
42 8 1
42 9 10
42 10 6
42 12 8
42 14 3
42 17 11
42 18 7
42 20 2
42 23 9
42 27 11
42 28 8
42 31 9
42 32 8
42 33 1
42 34 1
42 38 1
43 0 8
43 1 8
43 4 9
43 5 9
43 9 2
43 10 2
43 11 4
43 12 2
43 15 10
43 19 9
43 20 2
43 21 2
43 22 1
43 23 2
43 24 7
43 25 5
43 26 11
43 27 4
43 38 5
43 39 4
43 40 3
43 41 9
44 1 5
44 3 1
44 4 9
44 6 6
44 9 8
44 11 5
44 12 3
44 13 11
44 16 4
44 19 5
44 21 1
44 22 4
44 24 3
44 26 3
44 27 8
44 28 1
44 32 2
44 34 10
44 35 5
44 39 8
44 41 6
45 0 2
45 2 4
45 3 11
45 4 6
45 5 1
45 6 8
45 10 1
45 13 8
45 14 7
45 19 1
45 21 9
45 22 1
45 23 6
45 25 3
45 26 2
45 30 9
45 31 2
45 32 4
45 33 5
45 34 4
45 36 5
45 41 1
45 42 3
45 43 9
45 44 6
46 1 8
46 2 5
46 3 6
46 5 6
46 6 7
46 8 8
46 11 10
46 13 4
46 15 11
46 19 5
46 21 2
46 22 3
46 29 4
46 30 5
46 31 10
46 34 1
46 35 8
46 36 10
46 37 2
46 40 5
46 41 1
46 42 5
46 43 3
46 45 2
47 1 10
47 5 8
47 7 3
47 10 6
47 14 11
47 15 6
47 17 9
47 18 4
47 19 9
47 21 2
47 22 1
47 25 7
47 26 6
47 28 3
47 29 2
47 30 2
47 40 10
47 42 8
47 44 6
47 45 1
48 0 6
48 4 3
48 5 6
48 6 4
48 9 2
48 10 10
48 11 3
48 12 6
48 17 11
48 18 11
48 19 9
48 22 11
48 24 9
48 26 11
48 29 3
48 31 10
48 32 6
48 34 10
48 36 10
48 37 1
48 38 7
48 39 11
48 42 10
48 43 9
49 0 4
49 1 2
49 2 3
49 5 4
49 7 4
49 9 7
49 10 1
49 11 6
49 16 2
49 17 8
49 18 6
49 20 10
49 21 6
49 22 11
49 24 9
49 25 11
49 26 1
49 28 10
49 29 7
49 33 10
49 35 6
49 36 7
49 41 1
49 42 1
49 44 2
49 47 1
50 1 3
50 2 4
50 3 10
50 4 4
50 5 6
50 6 8
50 7 7
50 11 11
50 15 1
50 16 2
50 18 5
50 19 10
50 23 9
50 25 2
50 27 10
50 28 11
50 32 9
50 34 6
50 35 9
50 36 3
50 38 8
50 42 8
50 43 9
50 44 10
50 45 3
50 47 2
50 48 3
50 49 7
51 0 1
51 2 9
51 3 5
51 4 5
51 5 6
51 7 4
51 8 4
51 9 9
51 10 10
51 12 4
51 13 1
51 14 9
51 15 11
51 16 9
51 18 7
51 19 4
51 20 1
51 23 9
51 24 4
51 26 3
51 27 4
51 29 6
51 32 5
51 33 7
51 34 9
51 35 11
51 36 1
51 37 5
51 44 2
51 46 11
51 47 4
51 50 7
52 0 4
52 4 3
52 11 4
52 12 5
52 13 11
52 14 11
52 15 11
52 16 6
52 17 5
52 18 1
52 19 4
52 20 7
52 22 2
52 23 6
52 25 11
52 30 3
52 31 3
52 33 2
52 34 6
52 35 9
52 36 5
52 38 11
52 42 4
52 45 9
52 47 9
52 50 5
52 51 4
53 2 8
53 8 6
53 10 2
53 11 6
53 12 6
53 13 9
53 16 9
53 18 1
53 19 11
53 20 1
53 24 7
53 29 7
53 33 9
53 35 5
53 42 1
53 44 5
53 45 4
53 46 3
53 47 11
53 48 2
53 50 10
53 51 6
54 0 8
54 2 8
54 4 10
54 5 6
54 8 1
54 13 2
54 14 2
54 15 3
54 18 7
54 19 9
54 22 2
54 23 11
54 24 7
54 28 6
54 29 7
54 30 5
54 31 2
54 35 9
54 37 9
54 38 6
54 40 4
54 41 8
54 42 1
54 44 9
54 45 2
54 47 3
54 48 7
55 1 9
55 2 9
55 9 1
55 12 9
55 14 1
55 15 7
55 18 8
55 20 4
55 22 4
55 23 1
55 24 6
55 25 2
55 26 3
55 32 2
55 33 9
55 34 2
55 35 4
55 37 10
55 38 11
55 39 7
55 40 9
55 44 10
55 46 5
55 48 5
56 2 11
56 9 7
56 10 3
56 12 7
56 13 3
56 17 11
56 20 5
56 22 2
56 23 5
56 26 7
56 27 4
56 28 5
56 29 11
56 30 8
56 31 4
56 32 6
56 33 10
56 40 4
56 41 3
56 45 8
56 46 11
56 51 1
56 53 8
56 55 5
57 0 6
57 1 2
57 2 7
57 3 1
57 8 10
57 13 8
57 14 10
57 15 9
57 21 1
57 25 1
57 26 5
57 27 7
57 28 10
57 29 10
57 30 3
57 33 8
57 35 6
57 39 10
57 40 10
57 42 9
57 43 7
57 48 4
57 51 4
57 54 2
57 55 7
57 56 3
58 0 10
58 1 2
58 10 2
58 12 11
58 13 7
58 16 9
58 17 5
58 18 10
58 19 6
58 21 7
58 23 5
58 25 11
58 27 8
58 29 9
58 33 5
58 36 1
58 37 4
58 38 2
58 40 6
58 41 4
58 45 4
58 47 10
58 48 5
58 50 2
58 51 7
58 53 2
58 54 6
58 55 1
58 57 10
59 0 9
59 1 2
59 3 7
59 4 4
59 6 7
59 10 4
59 11 2
59 12 3
59 16 5
59 19 8
59 23 2
59 24 2
59 25 3
59 26 10
59 28 7
59 30 3
59 31 7
59 32 1
59 33 11
59 34 6
59 36 4
59 38 8
59 40 1
59 42 4
59 46 7
59 48 10
59 49 1
59 52 5
59 54 11
59 55 5
60 4 9
60 7 6
60 8 1
60 10 7
60 11 1
60 13 9
60 17 5
60 18 9
60 19 4
60 22 3
60 24 9
60 25 4
60 26 2
60 32 2
60 34 11
60 36 9
60 38 2
60 39 5
60 40 4
60 41 2
60 45 5
60 46 4
60 47 3
60 50 3
60 51 4
60 53 11
60 54 4
60 55 2
60 56 8
60 57 4
60 59 7
61 1 1
61 2 8
61 3 8
61 5 1
61 8 6
61 10 10
61 12 4
61 13 4
61 16 11
61 18 9
61 21 3
61 22 5
61 24 4
61 26 5
61 28 9
61 29 4
61 30 5
61 31 11
61 32 11
61 33 4
61 35 9
61 38 1
61 39 5
61 47 2
61 50 11
61 51 10
61 52 8
61 54 7
61 55 1
61 56 11
61 57 1
61 59 9
62 4 10
62 5 3
62 8 2
62 10 1
62 12 5
62 13 5
62 15 8
62 20 4
62 22 6
62 24 9
62 26 10
62 27 7
62 30 11
62 32 5
62 35 1
62 38 2
62 41 10
62 44 6
62 45 6
62 46 1
62 48 2
62 51 9
62 52 8
62 54 4
62 58 8
62 60 1
63 0 7
63 7 4
63 9 1
63 10 11
63 11 6
63 13 6
63 15 11
63 18 1
63 20 2
63 22 7
63 23 11
63 25 8
63 26 7
63 27 9
63 28 10
63 29 5
63 30 11
63 32 6
63 34 9
63 36 7
63 37 6
63 38 8
63 40 6
63 41 5
63 42 7
63 44 7
63 47 7
63 48 6
63 50 4
63 52 4
63 53 3
63 54 7
63 55 10
63 56 8
63 59 9
63 60 8
63 61 2
64 0 8
64 1 5
64 2 8
64 3 10
64 4 9
64 5 7
64 6 3
64 9 10
64 13 11
64 14 4
64 15 3
64 16 7
64 18 5
64 19 11
64 24 10
64 26 4
64 28 9
64 29 8
64 31 6
64 38 3
64 39 4
64 40 3
64 45 10
64 46 2
64 47 5
64 50 6
64 52 1
64 55 8
64 56 10
64 58 4
64 61 8
65 1 3
65 2 1
65 3 7
65 4 5
65 5 9
65 6 7
65 7 2
65 9 9
65 17 5
65 18 4
65 19 10
65 21 4
65 22 3
65 23 2
65 26 1
65 31 9
65 35 8
65 36 7
65 37 7
65 39 9
65 40 6
65 42 3
65 43 5
65 45 9
65 49 7
65 54 2
65 56 8
65 58 4
65 59 3
65 60 6
65 62 5
65 63 7
65 64 8
66 0 11
66 1 4
66 4 10
66 5 3
66 8 3
66 9 2
66 10 5
66 11 3
66 14 8
66 20 8
66 23 10
66 24 6
66 25 10
66 26 10
66 27 7
66 31 6
66 32 10
66 34 1
66 36 8
66 40 5
66 43 8
66 45 7
66 46 2
66 47 10
66 48 10
66 49 4
66 51 4
66 53 3
66 55 3
66 58 4
66 62 10
66 64 1
66 65 10
67 0 10
67 4 7
67 5 10
67 7 9
67 8 1
67 11 11
67 12 6
67 14 3
67 16 11
67 17 8
67 18 9
67 21 4
67 22 7
67 25 11
67 26 4
67 28 8
67 29 5
67 30 4
67 31 10
67 34 10
67 35 9
67 37 3
67 39 3
67 43 10
67 44 4
67 45 11
67 47 11
67 48 9
67 49 6
67 51 11
67 53 3
67 54 2
67 55 3
67 56 11
67 59 8
67 60 7
67 63 3
68 0 7
68 8 3
68 9 2
68 10 7
68 11 1
68 12 4
68 13 2
68 14 3
68 17 4
68 18 10
68 19 9
68 21 1
68 22 8
68 24 4
68 27 10
68 28 5
68 31 2
68 33 9
68 34 7
68 37 9
68 38 2
68 41 5
68 44 3
68 45 9
68 46 3
68 49 7
68 51 4
68 53 3
68 56 11
68 57 11
68 59 2
68 62 4
68 65 9
68 66 11
69 0 1
69 1 11
69 2 11
69 3 2
69 4 1
69 7 5
69 9 4
69 13 11
69 14 3
69 15 8
69 16 10
69 18 3
69 19 4
69 20 2
69 21 9
69 22 1
69 24 3
69 26 2
69 30 11
69 37 10
69 38 5
69 39 5
69 43 1
69 46 3
69 52 3
69 53 2
69 54 10
69 57 9
69 58 5
69 62 11
69 65 11
69 68 5
